p cnf num-of-variables num-of-clauses
001 002 003 004 005 006 007 008 009 0
011 012 013 014 015 016 017 018 019 0
021 022 023 024 025 026 027 028 029 0
031 032 033 034 035 036 037 038 039 0
041 042 043 044 045 046 047 048 049 0
051 052 053 054 055 056 057 058 059 0
061 062 063 064 065 066 067 068 069 0
071 072 073 074 075 076 077 078 079 0
081 082 083 084 085 086 087 088 089 0
101 102 103 104 105 106 107 108 109 0
111 112 113 114 115 116 117 118 119 0
121 122 123 124 125 126 127 128 129 0
131 132 133 134 135 136 137 138 139 0
141 142 143 144 145 146 147 148 149 0
151 152 153 154 155 156 157 158 159 0
161 162 163 164 165 166 167 168 169 0
171 172 173 174 175 176 177 178 179 0
181 182 183 184 185 186 187 188 189 0
201 202 203 204 205 206 207 208 209 0
211 212 213 214 215 216 217 218 219 0
221 222 223 224 225 226 227 228 229 0
231 232 233 234 235 236 237 238 239 0
241 242 243 244 245 246 247 248 249 0
251 252 253 254 255 256 257 258 259 0
261 262 263 264 265 266 267 268 269 0
271 272 273 274 275 276 277 278 279 0
281 282 283 284 285 286 287 288 289 0
301 302 303 304 305 306 307 308 309 0
311 312 313 314 315 316 317 318 319 0
321 322 323 324 325 326 327 328 329 0
331 332 333 334 335 336 337 338 339 0
341 342 343 344 345 346 347 348 349 0
351 352 353 354 355 356 357 358 359 0
361 362 363 364 365 366 367 368 369 0
371 372 373 374 375 376 377 378 379 0
381 382 383 384 385 386 387 388 389 0
401 402 403 404 405 406 407 408 409 0
411 412 413 414 415 416 417 418 419 0
421 422 423 424 425 426 427 428 429 0
431 432 433 434 435 436 437 438 439 0
441 442 443 444 445 446 447 448 449 0
451 452 453 454 455 456 457 458 459 0
461 462 463 464 465 466 467 468 469 0
471 472 473 474 475 476 477 478 479 0
481 482 483 484 485 486 487 488 489 0
501 502 503 504 505 506 507 508 509 0
511 512 513 514 515 516 517 518 519 0
521 522 523 524 525 526 527 528 529 0
531 532 533 534 535 536 537 538 539 0
541 542 543 544 545 546 547 548 549 0
551 552 553 554 555 556 557 558 559 0
561 562 563 564 565 566 567 568 569 0
571 572 573 574 575 576 577 578 579 0
581 582 583 584 585 586 587 588 589 0
601 602 603 604 605 606 607 608 609 0
611 612 613 614 615 616 617 618 619 0
621 622 623 624 625 626 627 628 629 0
631 632 633 634 635 636 637 638 639 0
641 642 643 644 645 646 647 648 649 0
651 652 653 654 655 656 657 658 659 0
661 662 663 664 665 666 667 668 669 0
671 672 673 674 675 676 677 678 679 0
681 682 683 684 685 686 687 688 689 0
701 702 703 704 705 706 707 708 709 0
711 712 713 714 715 716 717 718 719 0
721 722 723 724 725 726 727 728 729 0
731 732 733 734 735 736 737 738 739 0
741 742 743 744 745 746 747 748 749 0
751 752 753 754 755 756 757 758 759 0
761 762 763 764 765 766 767 768 769 0
771 772 773 774 775 776 777 778 779 0
781 782 783 784 785 786 787 788 789 0
801 802 803 804 805 806 807 808 809 0
811 812 813 814 815 816 817 818 819 0
821 822 823 824 825 826 827 828 829 0
831 832 833 834 835 836 837 838 839 0
841 842 843 844 845 846 847 848 849 0
851 852 853 854 855 856 857 858 859 0
861 862 863 864 865 866 867 868 869 0
871 872 873 874 875 876 877 878 879 0
881 882 883 884 885 886 887 888 889 0
-000 -001 0
-000 -002 0
-000 -003 0
-000 -004 0
-000 -005 0
-000 -006 0
-000 -007 0
-000 -008 0
-111 -112 0
-111 -113 0
-111 -114 0
-111 -115 0
-111 -116 0
-111 -117 0
-111 -118 0
-222 -221 0
-222 -223 0
-222 -224 0
-222 -225 0
-222 -226 0
-222 -227 0
-222 -228 0
-333 -331 0
-333 -332 0
-333 -334 0
-333 -335 0
-333 -336 0
-333 -337 0
-333 -338 0
-444 -441 0
-444 -442 0
-444 -443 0
-444 -445 0
-444 -446 0
-444 -447 0
-444 -448 0
-555 -551 0
-555 -552 0
-555 -553 0
-555 -554 0
-555 -556 0
-555 -557 0
-555 -558 0
-666 -661 0
-666 -662 0
-666 -663 0
-666 -664 0
-666 -665 0
-666 -667 0
-666 -668 0
-777 -771 0
-777 -772 0
-777 -773 0
-777 -774 0
-777 -775 0
-777 -776 0
-777 -778 0
-888 -881 0
-888 -882 0
-888 -883 0
-888 -884 0
-888 -885 0
-888 -886 0
-888 -887 0
001 011 021 031 041 051 061 071 081 0
002 012 022 032 042 052 062 072 082 0
003 013 023 033 043 053 063 073 083 0
004 014 024 034 044 054 064 074 084 0
005 015 025 035 045 055 065 075 085 0
006 016 026 036 046 056 066 076 086 0
007 017 027 037 047 057 067 077 087 0
008 018 028 038 048 058 068 078 088 0
009 019 029 039 049 059 069 079 089 0
101 111 121 131 141 151 161 171 181 0
102 112 122 132 142 152 162 172 182 0
103 113 123 133 143 153 163 173 183 0
104 114 124 134 144 154 164 174 184 0
105 115 125 135 145 155 165 175 185 0
106 116 126 136 146 156 166 176 186 0
107 117 127 137 147 157 167 177 187 0
108 118 128 138 148 158 168 178 188 0
109 119 129 139 149 159 169 179 189 0
201 211 221 231 241 251 261 271 281 0
202 212 222 232 242 252 262 272 282 0
203 213 223 233 243 253 263 273 283 0
204 214 224 234 244 254 264 274 284 0
205 215 225 235 245 255 265 275 285 0
206 216 226 236 246 256 266 276 286 0
207 217 227 237 247 257 267 277 287 0
208 218 228 238 248 258 268 278 288 0
209 219 229 239 249 259 269 279 289 0
301 311 321 331 341 351 361 371 381 0
302 312 322 332 342 352 362 372 382 0
303 313 323 333 343 353 363 373 383 0
304 314 324 334 344 354 364 374 384 0
305 315 325 335 345 355 365 375 385 0
306 316 326 336 346 356 366 376 386 0
307 317 327 337 347 357 367 377 387 0
308 318 328 338 348 358 368 378 388 0
309 319 329 339 349 359 369 379 389 0
401 411 421 431 441 451 461 471 481 0
402 412 422 432 442 452 462 472 482 0
403 413 423 433 443 453 463 473 483 0
404 414 424 434 444 454 464 474 484 0
405 415 425 435 445 455 465 475 485 0
406 416 426 436 446 456 466 476 486 0
407 417 427 437 447 457 467 477 487 0
408 418 428 438 448 458 468 478 488 0
409 419 429 439 449 459 469 479 489 0
501 511 521 531 541 551 561 571 581 0
502 512 522 532 542 552 562 572 582 0
503 513 523 533 543 553 563 573 583 0
504 514 524 534 544 554 564 574 584 0
505 515 525 535 545 555 565 575 585 0
506 516 526 536 546 556 566 576 586 0
507 517 527 537 547 557 567 577 587 0
508 518 528 538 548 558 568 578 588 0
509 519 529 539 549 559 569 579 589 0
601 611 621 631 641 651 661 671 681 0
602 612 622 632 642 652 662 672 682 0
603 613 623 633 643 653 663 673 683 0
604 614 624 634 644 654 664 674 684 0
605 615 625 635 645 655 665 675 685 0
606 616 626 636 646 656 666 676 686 0
607 617 627 637 647 657 667 677 687 0
608 618 628 638 648 658 668 678 688 0
609 619 629 639 649 659 669 679 689 0
701 711 721 731 741 751 761 771 781 0
702 712 722 732 742 752 762 772 782 0
703 713 723 733 743 753 763 773 783 0
704 714 724 734 744 754 764 774 784 0
705 715 725 735 745 755 765 775 785 0
706 716 726 736 746 756 766 776 786 0
707 717 727 737 747 757 767 777 787 0
708 718 728 738 748 758 768 778 788 0
709 719 729 739 749 759 769 779 789 0
801 811 821 831 841 851 861 871 881 0
802 812 822 832 842 852 862 872 882 0
803 813 823 833 843 853 863 873 883 0
804 814 824 834 844 854 864 874 884 0
805 815 825 835 845 855 865 875 885 0
806 816 826 836 846 856 866 876 886 0
807 817 827 837 847 857 867 877 887 0
808 818 828 838 848 858 868 878 888 0
809 819 829 839 849 859 869 879 889 0
-001 -011 0
-001 -021 0
-001 -031 0
-001 -041 0
-001 -051 0
-001 -061 0
-001 -071 0
-001 -081 0
-111 -121 0
-111 -131 0
-111 -141 0
-111 -151 0
-111 -161 0
-111 -171 0
-111 -181 0
-221 -211 0
-221 -231 0
-221 -241 0
-221 -251 0
-221 -261 0
-221 -271 0
-221 -281 0
-331 -311 0
-331 -321 0
-331 -341 0
-331 -351 0
-331 -361 0
-331 -371 0
-331 -381 0
-441 -411 0
-441 -421 0
-441 -431 0
-441 -451 0
-441 -461 0
-441 -471 0
-441 -481 0
-551 -511 0
-551 -521 0
-551 -531 0
-551 -541 0
-551 -561 0
-551 -571 0
-551 -581 0
-661 -611 0
-661 -621 0
-661 -631 0
-661 -641 0
-661 -651 0
-661 -671 0
-661 -681 0
-771 -711 0
-771 -721 0
-771 -731 0
-771 -741 0
-771 -751 0
-771 -761 0
-771 -781 0
-881 -811 0
-881 -821 0
-881 -831 0
-881 -841 0
-881 -851 0
-881 -861 0
-881 -871 0
-002 -012 0
-002 -022 0
-002 -032 0
-002 -042 0
-002 -052 0
-002 -062 0
-002 -072 0
-002 -082 0
-112 -122 0
-112 -132 0
-112 -142 0
-112 -152 0
-112 -162 0
-112 -172 0
-112 -182 0
-222 -212 0
-222 -232 0
-222 -242 0
-222 -252 0
-222 -262 0
-222 -272 0
-222 -282 0
-332 -312 0
-332 -322 0
-332 -342 0
-332 -352 0
-332 -362 0
-332 -372 0
-332 -382 0
-442 -412 0
-442 -422 0
-442 -432 0
-442 -452 0
-442 -462 0
-442 -472 0
-442 -482 0
-552 -512 0
-552 -522 0
-552 -532 0
-552 -542 0
-552 -562 0
-552 -572 0
-552 -582 0
-662 -612 0
-662 -622 0
-662 -632 0
-662 -642 0
-662 -652 0
-662 -672 0
-662 -682 0
-772 -712 0
-772 -722 0
-772 -732 0
-772 -742 0
-772 -752 0
-772 -762 0
-772 -782 0
-882 -812 0
-882 -822 0
-882 -832 0
-882 -842 0
-882 -852 0
-882 -862 0
-882 -872 0
-003 -013 0
-003 -023 0
-003 -033 0
-003 -043 0
-003 -053 0
-003 -063 0
-003 -073 0
-003 -083 0
-113 -123 0
-113 -133 0
-113 -143 0
-113 -153 0
-113 -163 0
-113 -173 0
-113 -183 0
-223 -213 0
-223 -233 0
-223 -243 0
-223 -253 0
-223 -263 0
-223 -273 0
-223 -283 0
-333 -313 0
-333 -323 0
-333 -343 0
-333 -353 0
-333 -363 0
-333 -373 0
-333 -383 0
-443 -413 0
-443 -423 0
-443 -433 0
-443 -453 0
-443 -463 0
-443 -473 0
-443 -483 0
-553 -513 0
-553 -523 0
-553 -533 0
-553 -543 0
-553 -563 0
-553 -573 0
-553 -583 0
-663 -613 0
-663 -623 0
-663 -633 0
-663 -643 0
-663 -653 0
-663 -673 0
-663 -683 0
-773 -713 0
-773 -723 0
-773 -733 0
-773 -743 0
-773 -753 0
-773 -763 0
-773 -783 0
-883 -813 0
-883 -823 0
-883 -833 0
-883 -843 0
-883 -853 0
-883 -863 0
-883 -873 0
-004 -014 0
-004 -024 0
-004 -034 0
-004 -044 0
-004 -054 0
-004 -064 0
-004 -074 0
-004 -084 0
-114 -124 0
-114 -134 0
-114 -144 0
-114 -154 0
-114 -164 0
-114 -174 0
-114 -184 0
-224 -214 0
-224 -234 0
-224 -244 0
-224 -254 0
-224 -264 0
-224 -274 0
-224 -284 0
-334 -314 0
-334 -324 0
-334 -344 0
-334 -354 0
-334 -364 0
-334 -374 0
-334 -384 0
-444 -414 0
-444 -424 0
-444 -434 0
-444 -454 0
-444 -464 0
-444 -474 0
-444 -484 0
-554 -514 0
-554 -524 0
-554 -534 0
-554 -544 0
-554 -564 0
-554 -574 0
-554 -584 0
-664 -614 0
-664 -624 0
-664 -634 0
-664 -644 0
-664 -654 0
-664 -674 0
-664 -684 0
-774 -714 0
-774 -724 0
-774 -734 0
-774 -744 0
-774 -754 0
-774 -764 0
-774 -784 0
-884 -814 0
-884 -824 0
-884 -834 0
-884 -844 0
-884 -854 0
-884 -864 0
-884 -874 0
-005 -015 0
-005 -025 0
-005 -035 0
-005 -045 0
-005 -055 0
-005 -065 0
-005 -075 0
-005 -085 0
-115 -125 0
-115 -135 0
-115 -145 0
-115 -155 0
-115 -165 0
-115 -175 0
-115 -185 0
-225 -215 0
-225 -235 0
-225 -245 0
-225 -255 0
-225 -265 0
-225 -275 0
-225 -285 0
-335 -315 0
-335 -325 0
-335 -345 0
-335 -355 0
-335 -365 0
-335 -375 0
-335 -385 0
-445 -415 0
-445 -425 0
-445 -435 0
-445 -455 0
-445 -465 0
-445 -475 0
-445 -485 0
-555 -515 0
-555 -525 0
-555 -535 0
-555 -545 0
-555 -565 0
-555 -575 0
-555 -585 0
-665 -615 0
-665 -625 0
-665 -635 0
-665 -645 0
-665 -655 0
-665 -675 0
-665 -685 0
-775 -715 0
-775 -725 0
-775 -735 0
-775 -745 0
-775 -755 0
-775 -765 0
-775 -785 0
-885 -815 0
-885 -825 0
-885 -835 0
-885 -845 0
-885 -855 0
-885 -865 0
-885 -875 0
-006 -016 0
-006 -026 0
-006 -036 0
-006 -046 0
-006 -056 0
-006 -066 0
-006 -076 0
-006 -086 0
-116 -126 0
-116 -136 0
-116 -146 0
-116 -156 0
-116 -166 0
-116 -176 0
-116 -186 0
-226 -216 0
-226 -236 0
-226 -246 0
-226 -256 0
-226 -266 0
-226 -276 0
-226 -286 0
-336 -316 0
-336 -326 0
-336 -346 0
-336 -356 0
-336 -366 0
-336 -376 0
-336 -386 0
-446 -416 0
-446 -426 0
-446 -436 0
-446 -456 0
-446 -466 0
-446 -476 0
-446 -486 0
-556 -516 0
-556 -526 0
-556 -536 0
-556 -546 0
-556 -566 0
-556 -576 0
-556 -586 0
-666 -616 0
-666 -626 0
-666 -636 0
-666 -646 0
-666 -656 0
-666 -676 0
-666 -686 0
-776 -716 0
-776 -726 0
-776 -736 0
-776 -746 0
-776 -756 0
-776 -766 0
-776 -786 0
-886 -816 0
-886 -826 0
-886 -836 0
-886 -846 0
-886 -856 0
-886 -866 0
-886 -876 0
-007 -017 0
-007 -027 0
-007 -037 0
-007 -047 0
-007 -057 0
-007 -067 0
-007 -077 0
-007 -087 0
-117 -127 0
-117 -137 0
-117 -147 0
-117 -157 0
-117 -167 0
-117 -177 0
-117 -187 0
-227 -217 0
-227 -237 0
-227 -247 0
-227 -257 0
-227 -267 0
-227 -277 0
-227 -287 0
-337 -317 0
-337 -327 0
-337 -347 0
-337 -357 0
-337 -367 0
-337 -377 0
-337 -387 0
-447 -417 0
-447 -427 0
-447 -437 0
-447 -457 0
-447 -467 0
-447 -477 0
-447 -487 0
-557 -517 0
-557 -527 0
-557 -537 0
-557 -547 0
-557 -567 0
-557 -577 0
-557 -587 0
-667 -617 0
-667 -627 0
-667 -637 0
-667 -647 0
-667 -657 0
-667 -677 0
-667 -687 0
-777 -717 0
-777 -727 0
-777 -737 0
-777 -747 0
-777 -757 0
-777 -767 0
-777 -787 0
-887 -817 0
-887 -827 0
-887 -837 0
-887 -847 0
-887 -857 0
-887 -867 0
-887 -877 0
-008 -018 0
-008 -028 0
-008 -038 0
-008 -048 0
-008 -058 0
-008 -068 0
-008 -078 0
-008 -088 0
-118 -128 0
-118 -138 0
-118 -148 0
-118 -158 0
-118 -168 0
-118 -178 0
-118 -188 0
-228 -218 0
-228 -238 0
-228 -248 0
-228 -258 0
-228 -268 0
-228 -278 0
-228 -288 0
-338 -318 0
-338 -328 0
-338 -348 0
-338 -358 0
-338 -368 0
-338 -378 0
-338 -388 0
-448 -418 0
-448 -428 0
-448 -438 0
-448 -458 0
-448 -468 0
-448 -478 0
-448 -488 0
-558 -518 0
-558 -528 0
-558 -538 0
-558 -548 0
-558 -568 0
-558 -578 0
-558 -588 0
-668 -618 0
-668 -628 0
-668 -638 0
-668 -648 0
-668 -658 0
-668 -678 0
-668 -688 0
-778 -718 0
-778 -728 0
-778 -738 0
-778 -748 0
-778 -758 0
-778 -768 0
-778 -788 0
-888 -818 0
-888 -828 0
-888 -838 0
-888 -848 0
-888 -858 0
-888 -868 0
-888 -878 0
-009 -019 0
-009 -029 0
-009 -039 0
-009 -049 0
-009 -059 0
-009 -069 0
-009 -079 0
-009 -089 0
-119 -129 0
-119 -139 0
-119 -149 0
-119 -159 0
-119 -169 0
-119 -179 0
-119 -189 0
-229 -219 0
-229 -239 0
-229 -249 0
-229 -259 0
-229 -269 0
-229 -279 0
-229 -289 0
-339 -319 0
-339 -329 0
-339 -349 0
-339 -359 0
-339 -369 0
-339 -379 0
-339 -389 0
-449 -419 0
-449 -429 0
-449 -439 0
-449 -459 0
-449 -469 0
-449 -479 0
-449 -489 0
-559 -519 0
-559 -529 0
-559 -539 0
-559 -549 0
-559 -569 0
-559 -579 0
-559 -589 0
-669 -619 0
-669 -629 0
-669 -639 0
-669 -649 0
-669 -659 0
-669 -679 0
-669 -689 0
-779 -719 0
-779 -729 0
-779 -739 0
-779 -749 0
-779 -759 0
-779 -769 0
-779 -789 0
-889 -819 0
-889 -829 0
-889 -839 0
-889 -849 0
-889 -859 0
-889 -869 0
-889 -879 0
001 101 201 301 401 501 601 701 801 901 0
002 102 202 302 402 502 602 702 802 902 0
003 103 203 303 403 503 603 703 803 903 0
004 104 204 304 404 504 604 704 804 904 0
005 105 205 305 405 505 605 705 805 905 0
006 106 206 306 406 506 606 706 806 906 0
007 107 207 307 407 507 607 707 807 907 0
008 108 208 308 408 508 608 708 808 908 0
009 109 209 309 409 509 609 709 809 909 0
011 111 211 311 411 511 611 711 811 911 0
012 112 212 312 412 512 612 712 812 912 0
013 113 213 313 413 513 613 713 813 913 0
014 114 214 314 414 514 614 714 814 914 0
015 115 215 315 415 515 615 715 815 915 0
016 116 216 316 416 516 616 716 816 916 0
017 117 217 317 417 517 617 717 817 917 0
018 118 218 318 418 518 618 718 818 918 0
019 119 219 319 419 519 619 719 819 919 0
021 121 221 321 421 521 621 721 821 921 0
022 122 222 322 422 522 622 722 822 922 0
023 123 223 323 423 523 623 723 823 923 0
024 124 224 324 424 524 624 724 824 924 0
025 125 225 325 425 525 625 725 825 925 0
026 126 226 326 426 526 626 726 826 926 0
027 127 227 327 427 527 627 727 827 927 0
028 128 228 328 428 528 628 728 828 928 0
029 129 229 329 429 529 629 729 829 929 0
031 131 231 331 431 531 631 731 831 931 0
032 132 232 332 432 532 632 732 832 932 0
033 133 233 333 433 533 633 733 833 933 0
034 134 234 334 434 534 634 734 834 934 0
035 135 235 335 435 535 635 735 835 935 0
036 136 236 336 436 536 636 736 836 936 0
037 137 237 337 437 537 637 737 837 937 0
038 138 238 338 438 538 638 738 838 938 0
039 139 239 339 439 539 639 739 839 939 0
041 141 241 341 441 541 641 741 841 941 0
042 142 242 342 442 542 642 742 842 942 0
043 143 243 343 443 543 643 743 843 943 0
044 144 244 344 444 544 644 744 844 944 0
045 145 245 345 445 545 645 745 845 945 0
046 146 246 346 446 546 646 746 846 946 0
047 147 247 347 447 547 647 747 847 947 0
048 148 248 348 448 548 648 748 848 948 0
049 149 249 349 449 549 649 749 849 949 0
051 151 251 351 451 551 651 751 851 951 0
052 152 252 352 452 552 652 752 852 952 0
053 153 253 353 453 553 653 753 853 953 0
054 154 254 354 454 554 654 754 854 954 0
055 155 255 355 455 555 655 755 855 955 0
056 156 256 356 456 556 656 756 856 956 0
057 157 257 357 457 557 657 757 857 957 0
058 158 258 358 458 558 658 758 858 958 0
059 159 259 359 459 559 659 759 859 959 0
061 161 261 361 461 561 661 761 861 961 0
062 162 262 362 462 562 662 762 862 962 0
063 163 263 363 463 563 663 763 863 963 0
064 164 264 364 464 564 664 764 864 964 0
065 165 265 365 465 565 665 765 865 965 0
066 166 266 366 466 566 666 766 866 966 0
067 167 267 367 467 567 667 767 867 967 0
068 168 268 368 468 568 668 768 868 968 0
069 169 269 369 469 569 669 769 869 969 0
071 171 271 371 471 571 671 771 871 971 0
072 172 272 372 472 572 672 772 872 972 0
073 173 273 373 473 573 673 773 873 973 0
074 174 274 374 474 574 674 774 874 974 0
075 175 275 375 475 575 675 775 875 975 0
076 176 276 376 476 576 676 776 876 976 0
077 177 277 377 477 577 677 777 877 977 0
078 178 278 378 478 578 678 778 878 978 0
079 179 279 379 479 579 679 779 879 979 0
081 181 281 381 481 581 681 781 881 981 0
082 182 282 382 482 582 682 782 882 982 0
083 183 283 383 483 583 683 783 883 983 0
084 184 284 384 484 584 684 784 884 984 0
085 185 285 385 485 585 685 785 885 985 0
086 186 286 386 486 586 686 786 886 986 0
087 187 287 387 487 587 687 787 887 987 0
088 188 288 388 488 588 688 788 888 988 0
089 189 289 389 489 589 689 789 889 989 0
-001 -101 0
-001 -201 0
-001 -301 0
-001 -401 0
-001 -501 0
-001 -601 0
-001 -701 0
-001 -801 0
-111 -211 0
-111 -311 0
-111 -411 0
-111 -511 0
-111 -611 0
-111 -711 0
-111 -811 0
-221 -121 0
-221 -321 0
-221 -421 0
-221 -521 0
-221 -621 0
-221 -721 0
-221 -821 0
-331 -131 0
-331 -231 0
-331 -431 0
-331 -531 0
-331 -631 0
-331 -731 0
-331 -831 0
-441 -141 0
-441 -241 0
-441 -341 0
-441 -541 0
-441 -641 0
-441 -741 0
-441 -841 0
-551 -151 0
-551 -251 0
-551 -351 0
-551 -451 0
-551 -651 0
-551 -751 0
-551 -851 0
-661 -161 0
-661 -261 0
-661 -361 0
-661 -461 0
-661 -561 0
-661 -761 0
-661 -861 0
-771 -171 0
-771 -271 0
-771 -371 0
-771 -471 0
-771 -571 0
-771 -671 0
-771 -871 0
-881 -181 0
-881 -281 0
-881 -381 0
-881 -481 0
-881 -581 0
-881 -681 0
-881 -781 0
-002 -102 0
-002 -202 0
-002 -302 0
-002 -402 0
-002 -502 0
-002 -602 0
-002 -702 0
-002 -802 0
-112 -212 0
-112 -312 0
-112 -412 0
-112 -512 0
-112 -612 0
-112 -712 0
-112 -812 0
-222 -122 0
-222 -322 0
-222 -422 0
-222 -522 0
-222 -622 0
-222 -722 0
-222 -822 0
-332 -132 0
-332 -232 0
-332 -432 0
-332 -532 0
-332 -632 0
-332 -732 0
-332 -832 0
-442 -142 0
-442 -242 0
-442 -342 0
-442 -542 0
-442 -642 0
-442 -742 0
-442 -842 0
-552 -152 0
-552 -252 0
-552 -352 0
-552 -452 0
-552 -652 0
-552 -752 0
-552 -852 0
-662 -162 0
-662 -262 0
-662 -362 0
-662 -462 0
-662 -562 0
-662 -762 0
-662 -862 0
-772 -172 0
-772 -272 0
-772 -372 0
-772 -472 0
-772 -572 0
-772 -672 0
-772 -872 0
-882 -182 0
-882 -282 0
-882 -382 0
-882 -482 0
-882 -582 0
-882 -682 0
-882 -782 0
-003 -103 0
-003 -203 0
-003 -303 0
-003 -403 0
-003 -503 0
-003 -603 0
-003 -703 0
-003 -803 0
-113 -213 0
-113 -313 0
-113 -413 0
-113 -513 0
-113 -613 0
-113 -713 0
-113 -813 0
-223 -123 0
-223 -323 0
-223 -423 0
-223 -523 0
-223 -623 0
-223 -723 0
-223 -823 0
-333 -133 0
-333 -233 0
-333 -433 0
-333 -533 0
-333 -633 0
-333 -733 0
-333 -833 0
-443 -143 0
-443 -243 0
-443 -343 0
-443 -543 0
-443 -643 0
-443 -743 0
-443 -843 0
-553 -153 0
-553 -253 0
-553 -353 0
-553 -453 0
-553 -653 0
-553 -753 0
-553 -853 0
-663 -163 0
-663 -263 0
-663 -363 0
-663 -463 0
-663 -563 0
-663 -763 0
-663 -863 0
-773 -173 0
-773 -273 0
-773 -373 0
-773 -473 0
-773 -573 0
-773 -673 0
-773 -873 0
-883 -183 0
-883 -283 0
-883 -383 0
-883 -483 0
-883 -583 0
-883 -683 0
-883 -783 0
-004 -104 0
-004 -204 0
-004 -304 0
-004 -404 0
-004 -504 0
-004 -604 0
-004 -704 0
-004 -804 0
-114 -214 0
-114 -314 0
-114 -414 0
-114 -514 0
-114 -614 0
-114 -714 0
-114 -814 0
-224 -124 0
-224 -324 0
-224 -424 0
-224 -524 0
-224 -624 0
-224 -724 0
-224 -824 0
-334 -134 0
-334 -234 0
-334 -434 0
-334 -534 0
-334 -634 0
-334 -734 0
-334 -834 0
-444 -144 0
-444 -244 0
-444 -344 0
-444 -544 0
-444 -644 0
-444 -744 0
-444 -844 0
-554 -154 0
-554 -254 0
-554 -354 0
-554 -454 0
-554 -654 0
-554 -754 0
-554 -854 0
-664 -164 0
-664 -264 0
-664 -364 0
-664 -464 0
-664 -564 0
-664 -764 0
-664 -864 0
-774 -174 0
-774 -274 0
-774 -374 0
-774 -474 0
-774 -574 0
-774 -674 0
-774 -874 0
-884 -184 0
-884 -284 0
-884 -384 0
-884 -484 0
-884 -584 0
-884 -684 0
-884 -784 0
-005 -105 0
-005 -205 0
-005 -305 0
-005 -405 0
-005 -505 0
-005 -605 0
-005 -705 0
-005 -805 0
-115 -215 0
-115 -315 0
-115 -415 0
-115 -515 0
-115 -615 0
-115 -715 0
-115 -815 0
-225 -125 0
-225 -325 0
-225 -425 0
-225 -525 0
-225 -625 0
-225 -725 0
-225 -825 0
-335 -135 0
-335 -235 0
-335 -435 0
-335 -535 0
-335 -635 0
-335 -735 0
-335 -835 0
-445 -145 0
-445 -245 0
-445 -345 0
-445 -545 0
-445 -645 0
-445 -745 0
-445 -845 0
-555 -155 0
-555 -255 0
-555 -355 0
-555 -455 0
-555 -655 0
-555 -755 0
-555 -855 0
-665 -165 0
-665 -265 0
-665 -365 0
-665 -465 0
-665 -565 0
-665 -765 0
-665 -865 0
-775 -175 0
-775 -275 0
-775 -375 0
-775 -475 0
-775 -575 0
-775 -675 0
-775 -875 0
-885 -185 0
-885 -285 0
-885 -385 0
-885 -485 0
-885 -585 0
-885 -685 0
-885 -785 0
-006 -106 0
-006 -206 0
-006 -306 0
-006 -406 0
-006 -506 0
-006 -606 0
-006 -706 0
-006 -806 0
-116 -216 0
-116 -316 0
-116 -416 0
-116 -516 0
-116 -616 0
-116 -716 0
-116 -816 0
-226 -126 0
-226 -326 0
-226 -426 0
-226 -526 0
-226 -626 0
-226 -726 0
-226 -826 0
-336 -136 0
-336 -236 0
-336 -436 0
-336 -536 0
-336 -636 0
-336 -736 0
-336 -836 0
-446 -146 0
-446 -246 0
-446 -346 0
-446 -546 0
-446 -646 0
-446 -746 0
-446 -846 0
-556 -156 0
-556 -256 0
-556 -356 0
-556 -456 0
-556 -656 0
-556 -756 0
-556 -856 0
-666 -166 0
-666 -266 0
-666 -366 0
-666 -466 0
-666 -566 0
-666 -766 0
-666 -866 0
-776 -176 0
-776 -276 0
-776 -376 0
-776 -476 0
-776 -576 0
-776 -676 0
-776 -876 0
-886 -186 0
-886 -286 0
-886 -386 0
-886 -486 0
-886 -586 0
-886 -686 0
-886 -786 0
-007 -107 0
-007 -207 0
-007 -307 0
-007 -407 0
-007 -507 0
-007 -607 0
-007 -707 0
-007 -807 0
-117 -217 0
-117 -317 0
-117 -417 0
-117 -517 0
-117 -617 0
-117 -717 0
-117 -817 0
-227 -127 0
-227 -327 0
-227 -427 0
-227 -527 0
-227 -627 0
-227 -727 0
-227 -827 0
-337 -137 0
-337 -237 0
-337 -437 0
-337 -537 0
-337 -637 0
-337 -737 0
-337 -837 0
-447 -147 0
-447 -247 0
-447 -347 0
-447 -547 0
-447 -647 0
-447 -747 0
-447 -847 0
-557 -157 0
-557 -257 0
-557 -357 0
-557 -457 0
-557 -657 0
-557 -757 0
-557 -857 0
-667 -167 0
-667 -267 0
-667 -367 0
-667 -467 0
-667 -567 0
-667 -767 0
-667 -867 0
-777 -177 0
-777 -277 0
-777 -377 0
-777 -477 0
-777 -577 0
-777 -677 0
-777 -877 0
-887 -187 0
-887 -287 0
-887 -387 0
-887 -487 0
-887 -587 0
-887 -687 0
-887 -787 0
-008 -108 0
-008 -208 0
-008 -308 0
-008 -408 0
-008 -508 0
-008 -608 0
-008 -708 0
-008 -808 0
-118 -218 0
-118 -318 0
-118 -418 0
-118 -518 0
-118 -618 0
-118 -718 0
-118 -818 0
-228 -128 0
-228 -328 0
-228 -428 0
-228 -528 0
-228 -628 0
-228 -728 0
-228 -828 0
-338 -138 0
-338 -238 0
-338 -438 0
-338 -538 0
-338 -638 0
-338 -738 0
-338 -838 0
-448 -148 0
-448 -248 0
-448 -348 0
-448 -548 0
-448 -648 0
-448 -748 0
-448 -848 0
-558 -158 0
-558 -258 0
-558 -358 0
-558 -458 0
-558 -658 0
-558 -758 0
-558 -858 0
-668 -168 0
-668 -268 0
-668 -368 0
-668 -468 0
-668 -568 0
-668 -768 0
-668 -868 0
-778 -178 0
-778 -278 0
-778 -378 0
-778 -478 0
-778 -578 0
-778 -678 0
-778 -878 0
-888 -188 0
-888 -288 0
-888 -388 0
-888 -488 0
-888 -588 0
-888 -688 0
-888 -788 0
-009 -109 0
-009 -209 0
-009 -309 0
-009 -409 0
-009 -509 0
-009 -609 0
-009 -709 0
-009 -809 0
-119 -219 0
-119 -319 0
-119 -419 0
-119 -519 0
-119 -619 0
-119 -719 0
-119 -819 0
-229 -129 0
-229 -329 0
-229 -429 0
-229 -529 0
-229 -629 0
-229 -729 0
-229 -829 0
-339 -139 0
-339 -239 0
-339 -439 0
-339 -539 0
-339 -639 0
-339 -739 0
-339 -839 0
-449 -149 0
-449 -249 0
-449 -349 0
-449 -549 0
-449 -649 0
-449 -749 0
-449 -849 0
-559 -159 0
-559 -259 0
-559 -359 0
-559 -459 0
-559 -659 0
-559 -759 0
-559 -859 0
-669 -169 0
-669 -269 0
-669 -369 0
-669 -469 0
-669 -569 0
-669 -769 0
-669 -869 0
-779 -179 0
-779 -279 0
-779 -379 0
-779 -479 0
-779 -579 0
-779 -679 0
-779 -879 0
-889 -189 0
-889 -289 0
-889 -389 0
-889 -489 0
-889 -589 0
-889 -689 0
-889 -789 0
001 011 021 101 111 121 201 211 221 0
002 012 022 102 112 122 202 212 222 0
003 013 023 103 113 123 203 213 223 0
004 014 024 104 114 124 204 214 224 0
005 015 025 105 115 125 205 215 225 0
006 016 026 106 116 126 206 216 226 0
007 017 027 107 117 127 207 217 227 0
008 018 028 108 118 128 208 218 228 0
009 019 029 109 119 129 209 219 229 0
031 041 051 131 141 151 231 241 251 0
032 042 052 132 142 152 232 242 252 0
033 043 053 133 143 153 233 243 253 0
034 044 054 134 144 154 234 244 254 0
035 045 055 135 145 155 235 245 255 0
036 046 056 136 146 156 236 246 256 0
037 047 057 137 147 157 237 247 257 0
038 048 058 138 148 158 238 248 258 0
039 049 059 139 149 159 239 249 259 0
061 071 081 161 171 181 261 271 281 0
062 072 082 162 172 182 262 272 282 0
063 073 083 163 173 183 263 273 283 0
064 074 084 164 174 184 264 274 284 0
065 075 085 165 175 185 265 275 285 0
066 076 086 166 176 186 266 276 286 0
067 077 087 167 177 187 267 277 287 0
068 078 088 168 178 188 268 278 288 0
069 079 089 169 179 189 269 279 289 0
301 311 321 401 411 421 501 511 521 0
302 312 322 402 412 422 502 512 522 0
303 313 323 403 413 423 503 513 523 0
304 314 324 404 414 424 504 514 524 0
305 315 325 405 415 425 505 515 525 0
306 316 326 406 416 426 506 516 526 0
307 317 327 407 417 427 507 517 527 0
308 318 328 408 418 428 508 518 528 0
309 319 329 409 419 429 509 519 529 0
331 341 351 431 441 451 531 541 551 0
332 342 352 432 442 452 532 542 552 0
333 343 353 433 443 453 533 543 553 0
334 344 354 434 444 454 534 544 554 0
335 345 355 435 445 455 535 545 555 0
336 346 356 436 446 456 536 546 556 0
337 347 357 437 447 457 537 547 557 0
338 348 358 438 448 458 538 548 558 0
339 349 359 439 449 459 539 549 559 0
361 371 381 461 471 481 561 571 581 0
362 372 382 462 472 482 562 572 582 0
363 373 383 463 473 483 563 573 583 0
364 374 384 464 474 484 564 574 584 0
365 375 385 465 475 485 565 575 585 0
366 376 386 466 476 486 566 576 586 0
367 377 387 467 477 487 567 577 587 0
368 378 388 468 478 488 568 578 588 0
369 379 389 469 479 489 569 579 589 0
601 611 621 701 711 721 801 811 821 0
602 612 622 702 712 722 802 812 822 0
603 613 623 703 713 723 803 813 823 0
604 614 624 704 714 724 804 814 824 0
605 615 625 705 715 725 805 815 825 0
606 616 626 706 716 726 806 816 826 0
607 617 627 707 717 727 807 817 827 0
608 618 628 708 718 728 808 818 828 0
609 619 629 709 719 729 809 819 829 0
631 641 651 731 741 751 831 841 851 0
632 642 652 732 742 752 832 842 852 0
633 643 653 733 743 753 833 843 853 0
634 644 654 734 744 754 834 844 854 0
635 645 655 735 745 755 835 845 855 0
636 646 656 736 746 756 836 846 856 0
637 647 657 737 747 757 837 847 857 0
638 648 658 738 748 758 838 848 858 0
639 649 659 739 749 759 839 849 859 0
661 671 681 761 771 781 861 871 881 0
662 672 682 762 772 782 862 872 882 0
663 673 683 763 773 783 863 873 883 0
664 674 684 764 774 784 864 874 884 0
665 675 685 765 775 785 865 875 885 0
666 676 686 766 776 786 866 876 886 0
667 677 687 767 777 787 867 877 887 0
668 678 688 768 778 788 868 878 888 0
669 679 689 769 779 789 869 879 889 0
001 0
002 0
003 0
004 0
005 0
006 0
007 0
008 0
009 0
011 0
012 0
013 0
014 0
015 0
016 0
017 0
018 0
019 0
021 0
022 0
023 0
024 0
025 0
026 0
027 0
028 0
029 0
031 0
032 0
033 0
034 0
035 0
036 0
037 0
038 0
039 0
041 0
042 0
043 0
044 0
045 0
046 0
047 0
048 0
049 0
051 0
052 0
053 0
054 0
055 0
056 0
057 0
058 0
059 0
061 0
062 0
063 0
064 0
065 0
066 0
067 0
068 0
069 0
071 0
072 0
073 0
074 0
075 0
076 0
077 0
078 0
079 0
081 0
082 0
083 0
084 0
085 0
086 0
087 0
088 0
089 0
101 0
102 0
103 0
104 0
105 0
106 0
107 0
108 0
109 0
111 0
112 0
113 0
114 0
115 0
116 0
117 0
118 0
119 0
121 0
122 0
123 0
124 0
125 0
126 0
127 0
128 0
129 0
131 0
132 0
133 0
134 0
135 0
136 0
137 0
138 0
139 0
141 0
142 0
143 0
144 0
145 0
146 0
147 0
148 0
149 0
151 0
152 0
153 0
154 0
155 0
156 0
157 0
158 0
159 0
161 0
162 0
163 0
164 0
165 0
166 0
167 0
168 0
169 0
171 0
172 0
173 0
174 0
175 0
176 0
177 0
178 0
179 0
181 0
182 0
183 0
184 0
185 0
186 0
187 0
188 0
189 0
201 0
202 0
203 0
204 0
205 0
206 0
207 0
208 0
209 0
211 0
212 0
213 0
214 0
215 0
216 0
217 0
218 0
219 0
221 0
222 0
223 0
224 0
225 0
226 0
227 0
228 0
229 0
231 0
232 0
233 0
234 0
235 0
236 0
237 0
238 0
239 0
241 0
242 0
243 0
244 0
245 0
246 0
247 0
248 0
249 0
251 0
252 0
253 0
254 0
255 0
256 0
257 0
258 0
259 0
261 0
262 0
263 0
264 0
265 0
266 0
267 0
268 0
269 0
271 0
272 0
273 0
274 0
275 0
276 0
277 0
278 0
279 0
281 0
282 0
283 0
284 0
285 0
286 0
287 0
288 0
289 0
301 0
302 0
303 0
304 0
305 0
306 0
307 0
308 0
309 0
311 0
312 0
313 0
314 0
315 0
316 0
317 0
318 0
319 0
321 0
322 0
323 0
324 0
325 0
326 0
327 0
328 0
329 0
331 0
332 0
333 0
334 0
335 0
336 0
337 0
338 0
339 0
341 0
342 0
343 0
344 0
345 0
346 0
347 0
348 0
349 0
351 0
352 0
353 0
354 0
355 0
356 0
357 0
358 0
359 0
361 0
362 0
363 0
364 0
365 0
366 0
367 0
368 0
369 0
371 0
372 0
373 0
374 0
375 0
376 0
377 0
378 0
379 0
381 0
382 0
383 0
384 0
385 0
386 0
387 0
388 0
389 0
401 0
402 0
403 0
404 0
405 0
406 0
407 0
408 0
409 0
411 0
412 0
413 0
414 0
415 0
416 0
417 0
418 0
419 0
421 0
422 0
423 0
424 0
425 0
426 0
427 0
428 0
429 0
431 0
432 0
433 0
434 0
435 0
436 0
437 0
438 0
439 0
441 0
442 0
443 0
444 0
445 0
446 0
447 0
448 0
449 0
451 0
452 0
453 0
454 0
455 0
456 0
457 0
458 0
459 0
461 0
462 0
463 0
464 0
465 0
466 0
467 0
468 0
469 0
471 0
472 0
473 0
474 0
475 0
476 0
477 0
478 0
479 0
481 0
482 0
483 0
484 0
485 0
486 0
487 0
488 0
489 0
501 0
502 0
503 0
504 0
505 0
506 0
507 0
508 0
509 0
511 0
512 0
513 0
514 0
515 0
516 0
517 0
518 0
519 0
521 0
522 0
523 0
524 0
525 0
526 0
527 0
528 0
529 0
531 0
532 0
533 0
534 0
535 0
536 0
537 0
538 0
539 0
541 0
542 0
543 0
544 0
545 0
546 0
547 0
548 0
549 0
551 0
552 0
553 0
554 0
555 0
556 0
557 0
558 0
559 0
561 0
562 0
563 0
564 0
565 0
566 0
567 0
568 0
569 0
571 0
572 0
573 0
574 0
575 0
576 0
577 0
578 0
579 0
581 0
582 0
583 0
584 0
585 0
586 0
587 0
588 0
589 0
601 0
602 0
603 0
604 0
605 0
606 0
607 0
608 0
609 0
611 0
612 0
613 0
614 0
615 0
616 0
617 0
618 0
619 0
621 0
622 0
623 0
624 0
625 0
626 0
627 0
628 0
629 0
631 0
632 0
633 0
634 0
635 0
636 0
637 0
638 0
639 0
641 0
642 0
643 0
644 0
645 0
646 0
647 0
648 0
649 0
651 0
652 0
653 0
654 0
655 0
656 0
657 0
658 0
659 0
661 0
662 0
663 0
664 0
665 0
666 0
667 0
668 0
669 0
671 0
672 0
673 0
674 0
675 0
676 0
677 0
678 0
679 0
681 0
682 0
683 0
684 0
685 0
686 0
687 0
688 0
689 0
701 0
702 0
703 0
704 0
705 0
706 0
707 0
708 0
709 0
711 0
712 0
713 0
714 0
715 0
716 0
717 0
718 0
719 0
721 0
722 0
723 0
724 0
725 0
726 0
727 0
728 0
729 0
731 0
732 0
733 0
734 0
735 0
736 0
737 0
738 0
739 0
741 0
742 0
743 0
744 0
745 0
746 0
747 0
748 0
749 0
751 0
752 0
753 0
754 0
755 0
756 0
757 0
758 0
759 0
761 0
762 0
763 0
764 0
765 0
766 0
767 0
768 0
769 0
771 0
772 0
773 0
774 0
775 0
776 0
777 0
778 0
779 0
781 0
782 0
783 0
784 0
785 0
786 0
787 0
788 0
789 0
801 0
802 0
803 0
804 0
805 0
806 0
807 0
808 0
809 0
811 0
812 0
813 0
814 0
815 0
816 0
817 0
818 0
819 0
821 0
822 0
823 0
824 0
825 0
826 0
827 0
828 0
829 0
831 0
832 0
833 0
834 0
835 0
836 0
837 0
838 0
839 0
841 0
842 0
843 0
844 0
845 0
846 0
847 0
848 0
849 0
851 0
852 0
853 0
854 0
855 0
856 0
857 0
858 0
859 0
861 0
862 0
863 0
864 0
865 0
866 0
867 0
868 0
869 0
871 0
872 0
873 0
874 0
875 0
876 0
877 0
878 0
879 0
881 0
882 0
883 0
884 0
885 0
886 0
887 0
888 0
889 0
